
se = 40; % nombre de sessions
gr = 20; % nombre de grups de treball
cl = 7; % nombre de slots
minPapersPerSlot = 3; % minim nombre d'articles per sessio i slot
maxSesionsPar = 14; % maxim nombre de sessions paraleles

npMax = [3, 4, 4, 3, 6, 3, 5]; % nombre maxim de papers per slot

np = [9, 3, 7, 3, 14, 3, 15, 9, 6, 7, 5, 12, 3, 5, 14, 12, 6, 9, 7, 3, 5, 3, 8, 3, 4, 3, 3, 9, 12, 4, 3, 15, 3, 4, 8, 3, 7, 8, 7, 10]; % nombre de papers acceptats a cada sessio

WG = [ {1}, {2}, {3}, {}, {4}, {}, {5,6}, {7}, {}, {}, {8}, {9}, {}, {}, {10}, {11}, {}, {12}, {13}, {14,15}, {16,17}, {18,19,20}, {1}, {2,3,4}, {5}, {6}, {}, {7}, {8}, {9}, {10,11,12}, {}, {13}, {14,15}, {}, {16}, {17}, {18,19,20}, {1,2}, {3,4,5} ]; % grups per sessio

